%NProcShared=2
#n M06L/6-311++G** SCRF=(Solvent=Water) Opt

 Title

-1 1
8      -3.600087   -0.162911    1.622810
5      -3.364376    0.013978    0.170711
8      -3.989355    1.315823   -0.157161
8      -4.037318   -1.098282   -0.563279
6      -1.757775    0.012302   -0.147814
6      -1.025552    1.202910   -0.263858
6       0.349399    1.219828   -0.487418
6       1.012942    0.008534   -0.594681
8       2.400977    0.007884   -0.898942
6       3.239769    0.001981    0.139017
9       4.485969    0.003496   -0.336185
9       3.102391    1.076044    0.944297
9       3.100949   -1.080230    0.933205
6       0.347130   -1.201724   -0.495985
6      -1.027956   -1.180983   -0.271257
1      -3.090548   -0.915463    1.929888
1      -4.430430    1.223470   -1.002005
1      -3.572221   -1.281382   -1.381557
1      -1.557779    2.147990   -0.187051
1       0.902817    2.148423   -0.584422
1       0.897158   -2.131487   -0.599240
1      -1.552388   -2.132433   -0.196462

