%NProcShared=2
#n M06L/6-311++G** SCRF=(Solvent=Water) Opt

 Title

-1 1
8       3.457144   -0.765724   -1.035819
5       2.792179    0.059549    0.000385
8       3.374213   -0.345122    1.300751
8       3.110946    1.498831   -0.173105
6       1.172050   -0.208466   -0.021842
6       0.647097   -1.511209   -0.002399
6      -0.717369   -1.768383    0.010201
6      -1.619457   -0.707469    0.006303
17      -3.331053   -1.039820    0.023717
6      -1.132623    0.598481   -0.010474
17      -2.231457    1.958049   -0.015284
6       0.240127    0.833183   -0.025496
1       2.808976   -1.238618   -1.557886
1       3.109476    0.293638    1.965783
1       2.791030    1.797257   -1.027057
1       1.328144   -2.360333    0.010425
1      -1.099901   -2.783525    0.025627
1       0.586679    1.863235   -0.034547

