%NProcShared=2
#n M06L/6-311++G** SCRF=(Solvent=Water) Opt

 Title

-1 1
6      -0.318009    2.991153   -0.009528
6       0.702930    2.045947   -0.010310
6       0.488504    0.657417   -0.000391
6      -0.875010    0.272056    0.008114
6      -1.912523    1.212220    0.004854
6      -1.641828    2.573767   -0.002168
1       1.732386    2.390950   -0.029543
1      -2.456473    3.290564   -0.004253
1      -0.078476    4.051059   -0.017214
6      -1.297528   -1.171438    0.002268
1      -2.942463    0.876860    0.006881
5       1.842980   -0.294402   -0.006304
8       3.092801    0.517939   -0.090278
8       1.851660   -1.062731    1.261696
1       2.693772   -1.522652    1.312459
1       3.276267    0.900238    0.770222
8       1.866771   -1.131545   -1.223651
1       2.792122   -1.235516   -1.457537
9      -0.855692   -1.877349    1.064977
9      -0.892123   -1.845539   -1.097602
9      -2.652307   -1.316616    0.022773

