%NProcShared=2
#n M06L/6-311++G** SCRF=(Solvent=Water) Opt

 Title

-1 1
6      -0.208677    2.299738   -0.006145
6      -0.851224    0.940662   -0.003418
6      -2.247982    0.859590    0.016524
6      -2.906840   -0.367494    0.000381
6      -2.155639   -1.537271   -0.032988
6      -0.763117   -1.455938   -0.048007
6      -0.068541   -0.238052   -0.033598
5       1.563967   -0.216310   -0.018865
8       2.134747   -1.583815   -0.217181
8       2.056853    0.641889   -1.118687
8       2.078063    0.318945    1.288220
1      -0.883301    3.062152    0.393634
1       0.065903    2.604738   -1.021380
1       0.717229    2.297346    0.570898
1      -2.830398    1.779173    0.048228
1      -3.992546   -0.405740    0.018022
1      -2.650550   -2.505294   -0.043743
1      -0.176471   -2.371947   -0.071831
1       2.599495   -1.811842    0.589126
1       2.925726    0.307755   -1.352279
1       1.459893    0.101638    1.988333

