%NProcShared=2
#n M06L/6-311++G** SCRF=(Solvent=Water) Opt

 Title

-1 1
8       2.252227   -1.136779    1.267302
5       2.120172   -0.347957    0.004271
8       3.271843    0.578318   -0.101918
8       2.128956   -1.303366   -1.151525
6       0.734724    0.518047    0.002572
6       0.756845    1.902740    0.006240
6      -0.414306    2.692672    0.002776
6      -1.651812    2.098390   -0.001409
6      -1.756201    0.685818   -0.000612
6      -3.019282    0.042026   -0.002175
6      -3.117745   -1.328438   -0.001297
6      -1.946341   -2.114892    0.000800
6      -0.707178   -1.517275    0.001585
6      -0.557969   -0.104559    0.000591
1       2.336891   -2.057093    1.010888
1       3.979419    0.194406    0.419420
1       2.950129   -1.149201   -1.622418
1       1.723244    2.400238    0.014318
1      -0.333450    3.776950    0.004000
1      -2.561756    2.693363   -0.004273
1      -3.915418    0.658151   -0.004289
1      -4.092205   -1.807391   -0.002275
1      -2.027331   -3.197985    0.001402
1       0.190997   -2.124228   -0.003422

