%NProcShared=2
#n M06L/6-311++G** SCRF=(Solvent=Water) Opt

 Title

-1 1
6       1.521825    2.698230   -0.016912
8       0.500793    1.718609   -0.015134
6       0.878351    0.390752   -0.003391
6       2.219343    0.005838    0.012602
6       2.542909   -1.352256    0.022833
6       1.532430   -2.302612    0.013618
6       0.199307   -1.880511   -0.003404
6      -0.182945   -0.536986   -0.011376
5      -1.766195   -0.080677    0.008233
8      -2.129427    0.419235    1.365662
8      -2.659751   -1.226872   -0.245750
8      -2.030873    0.960107   -1.022280
1       2.144627    2.632596    0.882193
1       1.019891    3.664506   -0.033514
1       2.164945    2.611818   -0.899997
1       3.014709    0.742036    0.018269
1       3.586764   -1.651800    0.036608
1       1.775063   -3.361480    0.021520
1      -0.589679   -2.630813   -0.004431
1      -2.300339    1.358239    1.282221
1      -2.408172   -1.638289   -1.074987
1      -1.290099    1.573214   -1.012836

