%NProcShared=2
#n M06L/6-311++G** SCRF=(Solvent=Water) Opt

 Title

-1 1
7      -4.776522    0.003667    0.025185
6      -3.612636    0.005147    0.017491
6      -2.193268    0.007157    0.008170
6      -1.483484   -1.205045    0.031625
6      -0.098154   -1.184151    0.017784
6       0.641647    0.012317   -0.012476
5       2.279146   -0.020287    0.003044
8       2.759797   -0.909648   -1.090272
8       2.761082   -0.588217    1.278027
8       2.863611    1.342610   -0.079055
6      -0.100120    1.203413   -0.032852
6      -1.488233    1.219109   -0.025451
1      -2.029361   -2.143047    0.058275
1       0.436688   -2.131595    0.031466
1       2.165528   -0.864133   -1.841285
1       3.293615    0.083383    1.707275
1       2.705230    1.719394   -0.946264
1       0.434525    2.150293   -0.051768
1      -2.036738    2.155826   -0.044554

