%NProcShared=2
#n M06L/6-311++G** SCRF=(Solvent=Water) Opt

 Title

-1 1
6       3.146781   -1.515461    0.009083
6       2.101263   -0.438570   -0.016541
6       2.461359    0.910701    0.018803
6       1.476699    1.897089    0.020537
6       0.130891    1.542602   -0.013788
6      -0.280224    0.200627   -0.057098
5      -1.854947   -0.194994   -0.031578
8      -2.624185    0.796008   -0.816260
8      -1.979904   -1.582103   -0.560115
8      -2.431230   -0.131815    1.354295
6       0.739071   -0.761045   -0.057902
1       3.309223   -1.891198    1.025579
1       2.855211   -2.375443   -0.599259
1       4.111589   -1.154051   -0.354541
1       3.513268    1.186963    0.041067
1       1.766660    2.945107    0.043844
1      -0.627377    2.323157   -0.016629
1      -3.534404    0.765785   -0.512702
1      -2.900826   -1.843482   -0.485679
1      -2.049196   -0.841282    1.875354
1       0.458106   -1.812961   -0.101066

