%NProcShared=2
#n M06L/6-311++G** SCRF=(Solvent=Water) Opt

 Title

-1 1
6       4.883328   -0.753833    0.009032
8       3.454873   -0.835208    0.006579
6       2.807487    0.349385    0.000296
8       3.397335    1.414310   -0.004440
6       1.341992    0.192352    0.001784
6       0.715112   -1.059080   -0.001662
6      -0.672690   -1.141812    0.005630
6      -1.494301   -0.005006    0.014584
5      -3.122340   -0.091959    0.019834
8      -3.603318    0.544947    1.258916
8      -3.669923    0.636265   -1.171383
8      -3.631289   -1.489832    0.025611
6      -0.836525    1.238676    0.012398
6       0.546190    1.345146    0.008781
1       5.239717   -1.780976    0.019932
1       5.241957   -0.239152   -0.883884
1       5.237703   -0.221650    0.893319
1       1.320974   -1.959138   -0.007884
1      -1.145825   -2.121393    0.008901
1      -4.526142    0.302352    1.366915
1      -3.017692    0.666358   -1.872775
1      -3.666833   -1.810014   -0.877347
1      -1.432180    2.149604    0.014907
1       1.035032    2.314981    0.011426

