%NProcShared=2
#n M06L/6-311++G** SCRF=(Solvent=Water) Opt

 Title

-1 1
6      -0.709553    0.057867    0.038159
5      -2.280300   -0.391851   -0.002817
8      -3.194768    0.681315    0.463596
8      -2.383866   -1.610905    0.832046
1      -3.274753   -1.957191    0.738970
1      -3.100099    0.787730    1.411929
8      -2.670003   -0.652591   -1.412060
1      -3.500697   -0.198628   -1.567832
6       0.319643   -0.894993    0.024082
6      -0.340926    1.408816    0.030575
6       0.995176    1.763616    0.008218
6       1.649379   -0.498211   -0.000720
6       2.026887    0.839899   -0.008697
1       0.074868   -1.952065    0.039044
17       2.918435   -1.718011   -0.017436
1       3.062716    1.152266   -0.024338
9       1.330378    3.082801    0.005238
1      -1.101868    2.183598    0.047230

