%NProcShared=2
#n M06L/6-311++G** SCRF=(Solvent=Water) Opt

 Title

-1 1
6       2.340433   -2.552541   -0.010477
6       1.624951   -1.232559   -0.002026
6       2.348004   -0.035681   -0.004714
6       1.696858    1.199301   -0.003520
6       2.488386    2.475460   -0.006773
6       0.297208    1.216639   -0.000551
6      -0.476916    0.048744    0.003372
5      -2.106164    0.050976   -0.007996
8      -2.673624   -0.587451   -1.228365
8      -2.646525   -0.751472    1.138120
8      -2.572064    1.450254    0.020766
6       0.229980   -1.164296    0.004457
1       1.642101   -3.387345    0.079644
1       2.908802   -2.697545   -0.935159
1       3.060333   -2.629098    0.810216
1       3.437166   -0.068294   -0.005495
1       3.171508    2.531092    0.846679
1       3.108092    2.564843   -0.904945
1       1.836430    3.350689    0.032334
1      -0.208938    2.180934    0.001594
1      -2.546413   -1.536184   -1.160801
1      -2.173977   -0.512839    1.938225
1      -3.531592    1.430130   -0.000198
1      -0.328420   -2.102303    0.015108

