%NProcShared=2
#n M06L/6-311++G** SCRF=(Solvent=Water) Opt

 Title

-1 1
6      -0.287750   -1.210918    0.026518
6      -1.030028   -0.018050    0.023282
6      -0.295482    1.183218    0.006185
6       1.088637    1.208664   -0.001780
6       1.776771   -0.005586    0.005415
6       1.099747   -1.223053    0.019107
1       1.663957   -2.147895    0.025176
1      -0.824096   -2.155369    0.038419
1      -0.833773    2.127801    0.002365
1       1.644771    2.138167   -0.012180
7       3.230676    0.000747    0.000088
5      -2.657509    0.014141    0.009415
8      -3.124518    0.955884    1.054735
8      -3.152347    0.549330   -1.291986
1      -2.812392    0.005999   -2.006872
1      -3.844169    0.536414    1.528057
8      -3.157513   -1.359386    0.242338
1      -4.051233   -1.410957   -0.103420
8       3.813036    1.086920   -0.016096
8       3.823641   -1.079717    0.012058

