%NProcShared=2
#n M06L/6-311++G** SCRF=(Solvent=Water) Opt

 Title

-1 1
6      -3.796548   -1.736755    0.045216
8      -3.140821   -0.482612    0.020366
6      -1.773780   -0.505760    0.004465
6      -0.995076   -1.655720   -0.000321
6       0.401802   -1.560527   -0.018838
6       1.068161   -0.334478   -0.030720
5       2.696537   -0.210880    0.015505
8       3.191019   -0.183711    1.412443
8       3.321216   -1.394033   -0.644975
8       3.168188    1.075280   -0.581121
6       0.254786    0.814762   -0.027132
6      -1.133767    0.750982   -0.010370
8      -1.969448    1.834077   -0.009384
6      -1.359004    3.111545   -0.021291
1      -3.561032   -2.332705   -0.843794
1      -4.863918   -1.522871    0.061690
1      -3.529343   -2.313348    0.938023
1      -1.471757   -2.629782    0.009611
1       0.979732   -2.482975   -0.020775
1       3.716767    0.611938    1.510229
1       2.766014   -1.684547   -1.370884
1       2.828169    1.165603   -1.473047
1       0.741214    1.785646   -0.040291
1      -0.748326    3.258311   -0.919038
1      -0.729713    3.266082    0.862152
1      -2.171157    3.836748   -0.016091

