%NProcShared=2
#n M06L/6-311++G** SCRF=(Solvent=Water) Opt

 Title

-1 1
6       4.496809   -0.615117   -0.003442
6       3.586585    0.366764    0.001520
6       2.131610    0.234015    0.002042
6       1.469981   -1.006666    0.005468
6       0.085077   -1.070549    0.002695
6      -0.731193    0.076910   -0.003226
5      -2.351838   -0.060048   -0.008454
8      -2.774552   -0.869263    1.183580
8      -2.954992    1.285066    0.010783
8      -2.828201   -0.776641   -1.230230
6      -0.055818    1.303567   -0.005947
6       1.334913    1.386534   -0.002686
1       4.221794   -1.665712   -0.007857
1       5.558066   -0.395074   -0.003585
1       3.946366    1.396478    0.004646
1       2.051960   -1.925257    0.009117
1      -0.389541   -2.051487    0.004352
1      -3.385265   -0.333614    1.691963
1      -3.835706    1.204258   -0.361832
1      -3.037830   -1.674882   -0.968247
1      -0.640879    2.220294   -0.012467
1       1.824401    2.359184   -0.005426

