%NProcShared=2
#n M06L/6-311++G** SCRF=(Solvent=Water) Opt

 Title

-1 1
6       0.610940    0.228705    0.028539
6       0.306580    1.595923    0.039738
6      -1.005674    2.082750    0.030449
6      -2.071206    1.199293    0.012615
6      -1.810777   -0.178994    0.003141
6      -0.487438   -0.638386    0.008874
5       2.142386   -0.321131    0.005794
8       2.194375   -1.570709    0.791693
8       3.121690    0.612064    0.628031
1       3.112938   -1.742225    1.011213
1       3.320948    1.314058    0.005431
8       2.478032   -0.519208   -1.437305
1       3.384670   -0.832765   -1.496718
1      -3.099233    1.548311    0.008304
1       1.125415    2.313696    0.065725
1      -1.187937    3.153686    0.040198
6      -2.897619   -1.156080   -0.012819
8      -4.090027   -0.899301   -0.021582
1      -2.552864   -2.216065   -0.017141
1      -0.317262   -1.715086    0.004101

