%NProcShared=2
#n M06L/6-311++G** SCRF=(Solvent=Water) Opt

 Title

-1 1
8      -1.017482   -1.913752    1.287164
5      -0.386527   -1.610082   -0.019852
8      -1.265586   -1.862089   -1.190840
8       0.722145   -2.536011   -0.179531
6       0.061712    0.019375   -0.011121
6      -0.905254    1.037619   -0.015432
17      -2.639729    0.611492    0.087267
6      -0.671208    2.405304   -0.065546
6       0.643619    2.847291   -0.103452
6       1.667894    1.915186   -0.064118
6       1.359470    0.556042   -0.009191
17       2.792485   -0.480222    0.106385
1      -1.674954   -1.249544    1.505832
1      -2.076804   -1.354593   -1.133601
1       0.566227   -3.008478   -0.998335
1      -1.499662    3.103544   -0.070354
1       0.866093    3.907611   -0.148860
1       2.704867    2.230194   -0.068702

