%NProcShared=2
#n M06L/6-311++G** SCRF=(Solvent=Water) Opt

 Title

-1 1
8       1.534442   -1.522305   -1.134686
5       1.745748   -0.609071    0.029165
8       3.138536   -0.077883    0.004873
8       1.576876   -1.368812    1.269111
6       0.647851    0.619878    0.028313
6      -0.743671    0.477255   -0.000146
35      -1.569996   -1.271937   -0.005203
6      -1.640849    1.543721   -0.020475
6      -1.151378    2.845733   -0.014473
6       0.223175    3.051748    0.017970
6       1.083229    1.957430    0.041785
1       2.064679   -1.219113   -1.873639
1       3.285274    0.468760   -0.770061
1       2.135955   -2.147357    1.208271
1      -2.709758    1.359270   -0.040528
1      -1.842961    3.682231   -0.032065
1       0.623809    4.061338    0.029179
1       2.155163    2.135444    0.082906

