%NProcShared=2
#n M06L/6-311++G** SCRF=(Solvent=Water) Opt

 Title

-1 1
6       1.255152    0.304684    0.048494
6       0.020623   -0.358750    0.030067
6      -1.171117    0.357090    0.011449
6      -1.196816    1.746572    0.013163
6       0.023888    2.419224    0.034426
6       1.219787    1.707356    0.051188
35      -2.838967   -0.596328   -0.008892
1      -2.135853    2.288013    0.001845
1       0.027792    3.505988    0.040983
1       2.160458    2.254231    0.075182
1       0.002882   -1.444811    0.039098
5       2.663757   -0.514750   -0.003068
8       3.235397   -0.464552   -1.384298
1       3.264469    0.449299   -1.677381
8       3.601168    0.112138    0.964637
1       4.493698   -0.083821    0.669531
8       2.441962   -1.944342    0.305767
1       3.094292   -2.206695    0.955722

