%NProcShared=2
#n M06L/6-311++G** SCRF=(Solvent=Water) Opt

 Title

-1 1
O -2.0770 -0.7879  1.2379
B -1.6478 -0.1545 -0.0110
O -2.1289  1.2016 -0.1047
O -2.1247 -0.8933 -1.1912
C -0.0565 -0.1322 -0.0068
C  0.7735  0.8992 -0.3296
C  2.1006  0.6741 -0.2486
C  2.5016 -0.5634  0.1486
S  1.0300 -1.3845  0.3999
H -1.3278 -1.2515  1.7111
H -1.5226  1.8798  0.2464
H -2.2076 -1.8714 -0.9939
H  0.3136  1.8706 -0.6424
H  2.8494  1.4516 -0.4910
H  3.5240 -0.9381  0.2753
        
