%NProcShared=2
#n M06L/6-311++G** SCRF=(Solvent=Water) Opt

 Title

-1 1
C -0.9131 -0.7650 -0.1359
B  0.2837  0.2667 -0.0546
O  1.1139  0.2867 -1.2552
O  1.1633 -0.2010  1.0533
O -0.1887  1.6327  0.1806
H -1.8059 -0.3795 -0.6468
H -1.2353 -1.0410  0.9027
H -0.6181 -1.6949 -0.6446
H  1.9008 -0.2907 -1.2156
H  1.4875  0.5348  1.6043
H -1.1881  1.6512  0.2118
        
