%NProcShared=2
#n M06L/6-311++G** SCRF=(Solvent=Water) Opt

 Title

-1 1
O -1.6236 -1.3966  0.5377
B -1.3764 -0.0327  0.0487
O -2.0576  0.9037  0.9304
O -1.9923  0.0351 -1.2990
C  0.1626  0.1867 -0.0114
C  0.8576  1.2850 -0.5270
N  2.1834  1.0867 -0.3894
N  2.3540 -0.0890  0.1906
C  1.1620 -0.6567  0.4316
H -1.0825 -2.0770  0.0739
H -1.4560  1.5179  1.4129
H -1.8042 -0.8394 -1.7298
H  0.4059  2.1551 -0.9661
H  3.3046 -0.4651  0.4035
H  0.9625 -1.6137  0.8933
        
