%NProcShared=2
#n M06L/6-311++G** SCRF=(Solvent=Water) Opt

 Title

-1 1
O -2.3257  0.9996 -0.1243
B -1.6200 -0.2549  0.1444
O -1.9524 -0.7756  1.4919
O -2.0386 -1.2564 -0.8493
C -0.0552 -0.0370  0.0653
C  0.4939  1.2145  0.2260
C  1.8635  1.3339  0.1453
N  2.6632  0.2698 -0.0836
C  2.1454 -0.9594 -0.2429
C  0.7761 -1.1097 -0.1672
H -1.9591  1.3482 -0.9805
H -1.3181 -0.4128  2.1494
H -1.9305 -0.8247 -1.7351
H -0.1496  2.0711  0.4102
H  2.3104  2.3156  0.2702
H  2.7714 -1.8123 -0.4253
H  0.3253 -2.1099 -0.2947
        
