%NProcShared=2
#n M06L/6-311++G** SCRF=(Solvent=Water) Opt

 Title

-1 1
C  0.1527 -1.5641  0.0481
C -1.1138 -1.0121  0.0611
F -2.2440 -1.7833  0.1146
C -1.2259  0.3770  0.0178
C -0.0907  1.1731 -0.0367
C  1.1601  0.6068 -0.0488
C  1.2844 -0.7710 -0.0061
F  2.5279 -1.3009 -0.0193
H -2.2251  0.7790  0.0291
H -0.2420  2.2517 -0.0687
H  2.0165  1.2438 -0.0911
        
