%NProcShared=2
#n M06L/6-311++G** SCRF=(Solvent=Water) Opt=(TS,CalcFC,noeigentest)

 Title

-1 1
O -2.0745  0.3890  1.4148
B -1.6926 -0.0240  0.0749
O -2.4375  0.8190 -0.8811
O -2.1571 -1.3967 -0.1194
C -0.1579  0.0323 -0.1772
C  0.5872  1.1835 -0.0100
F -0.0647  2.2902  0.3884
C  1.9540  1.2282 -0.2360
C  2.6061  0.0883 -0.6430
C  1.9029 -1.0751 -0.8206
C  0.5392 -1.0933 -0.5884
F -0.1655 -2.2286 -0.7585
H -1.3404  0.2996  2.0591
H -3.3927  0.7499 -0.6104
H -2.6889 -1.5061 -0.9356
H  2.5283  2.1483 -0.0986
H  3.6706  0.0774 -0.8307
H  2.3836 -1.9820 -1.1379
        
