%NProcShared=2
#n M06L/6-311++G** SCRF=(Solvent=Water) Opt=(TS,CalcFC,noeigentest)

 Title

-1 1
O -2.3711 -0.7736 -0.9559
B -1.8545  0.1147  0.1176
O -2.3475 -0.4570  1.3906
O -2.3813  1.4512 -0.0077
C -0.3005  0.0429  0.0466
C  0.2785 -1.2136  0.1499
C  1.6508 -1.3479  0.0947
C  2.4640 -0.2412 -0.0631
C  1.9056  1.0116 -0.1670
C  0.5292  1.1107 -0.1079
H -1.9712 -0.5237 -1.8341
H -1.6404 -0.4794  2.0792
H -1.9014  2.0521 -0.6006
H -0.3206 -2.1108  0.2748
H  2.1160 -2.3189  0.1737
H  3.5376 -0.3153 -0.1095
H  2.5098  1.9087 -0.2922
H  0.0968  2.0894 -0.1893
        
