%NProcShared=2
#n M06L/6-311++G** SCRF=(Solvent=Water) Opt

 Title

-1 1
C  0.1414 -1.5725 -0.0218
C  1.2714 -0.7851 -0.0632
C  1.2119  0.6016 -0.0468
C -0.0607  1.1483  0.0140
C -1.2054  0.3857  0.0563
C -1.1069 -0.9929  0.0383
F -2.2152 -1.7878  0.0787
H  2.2532 -1.2588 -0.1106
H  2.0844  1.2233 -0.0786
H -0.1719  2.2326  0.0296
H -2.2023  0.8056  0.1039
        
