%NProcShared=2
#n M06L/6-311++G** SCRF=(Solvent=Water) Opt

 Title

-1 1
C  0.3418 -1.5935  0.0607
C -0.9850 -1.2123  0.0853
C -1.2728  0.1331  0.0340
C -0.2779  1.1017 -0.0406
C  1.0500  0.7238 -0.0654
F  2.0482  1.6597 -0.1387
C  1.3415 -0.6244 -0.0142
H -1.8090 -1.9146  0.1427
H -2.2905  0.5153  0.0489
H -0.5283  2.1582 -0.0801
H  2.3819 -0.9471 -0.0324
        
