%NProcShared=2
#n M06L/6-311++G** SCRF=(Solvent=Water) Opt=(TS,CalcFC,noeigentest)

 Title

-1 1
O -2.1751 -0.9602  1.0810
B -1.7752  0.1015  0.1202
O -2.2903 -0.2816 -1.1799
O -2.2727  1.3840  0.5986
C -0.1951  0.1056  0.0520
C  0.4591 -1.0445 -0.3068
C  1.8327 -1.1104 -0.3861
C  2.5734  0.0129 -0.0962
F  3.9391 -0.0211 -0.1659
C  1.9145  1.1672  0.2641
C  0.5432  1.2227  0.3402
H -2.3974 -1.7970  0.6285
H -1.6721 -0.1734 -1.9264
H -3.1373  1.1949  1.0709
H -0.1221 -1.9297 -0.5354
H  2.2871 -2.0512 -0.6761
H  2.4864  2.0593  0.4951
H  0.0018  2.1211  0.6219
        
