%NProcShared=2
#n M06L/6-311++G** SCRF=(Solvent=Water) Opt=(TS,CalcFC,noeigentest)

 Title

-1 1
O -1.9514 -1.7030  0.5194
B -1.7254 -0.3585 -0.0244
O -2.2899  0.5974  0.9228
O -2.3420 -0.2865 -1.3463
C -0.1963 -0.0839 -0.2004
C  0.6523 -1.1686 -0.1967
C  2.0143 -0.9940 -0.3477
C  2.5135  0.2728 -0.5017
C  1.6597  1.3428 -0.5037
F  2.1425  2.5970 -0.6550
C  0.2969  1.1735 -0.3530
F -0.5418  2.2410 -0.3563
H -1.5907 -1.6951  1.4556
H -2.9793  1.1863  0.5275
H -2.1128  0.5391 -1.8220
H  0.2362 -2.1591 -0.0737
H  2.6286 -1.8688 -0.3377
H  3.5856  0.3677 -0.6171
        
