%NProcShared=2
#n M06L/6-311++G** SCRF=(Solvent=Water) Opt

 Title

-1 1
C  0.3233 -1.5681 -0.0271
C  1.3606 -0.6608 -0.0636
C  1.1395  0.7062 -0.0426
C -0.1783  1.1118  0.0170
F -0.4846  2.4354  0.0413
C -1.2298  0.2190  0.0542
C -0.9848 -1.1355  0.0323
F -2.0006 -2.0554  0.0678
H  2.3681 -1.0101 -0.1094
H  1.9500  1.4316 -0.0710
H -2.2633  0.5260  0.1009
        
