%NProcShared=2
#n M06L/6-311++G** SCRF=(Solvent=Water) Opt=(TS,CalcFC,noeigentest)

 Title

-1 1
O -2.0962  0.9387 -1.2318
B -1.7149 -0.0686 -0.2223
O -2.3862  0.1972  1.0449
O -2.0893 -1.3935 -0.7694
C -0.1550 -0.0508 -0.0566
C  0.5984  1.0572 -0.3869
C  1.9661  1.0607 -0.2371
F  2.6364  2.1878 -0.5837
C  2.6105 -0.0540  0.2501
C  1.8892 -1.1717  0.5875
C  0.5246 -1.1671  0.4350
F -0.2305 -2.2378  0.7512
H -1.9660  1.8601 -0.9125
H -3.1256  0.8575  0.9173
H -2.6595 -1.8943 -0.1402
H  0.0766  1.9464 -0.7764
H  3.6973 -0.0460  0.3671
H  2.4241 -2.0219  0.9639
        
