%NProcShared=2
#n M06L/6-311++G** SCRF=(Solvent=Water) Opt

 Title

-1 1
C  0.2162 -1.6432 -0.0331
C -1.0776 -1.1467 -0.1096
C -1.2457  0.2359 -0.0807
C -0.2037  1.1098  0.0183
F -0.3435  2.4619  0.0482
C  1.0754  0.5955  0.0932
F  2.1545  1.4460  0.1941
C  1.2748 -0.7685  0.0671
H -1.9230 -1.8175 -0.1888
H -2.2421  0.6476 -0.1387
H  2.3147 -1.1209  0.1299
        
