%NProcShared=2
#n M06L/6-311++G** SCRF=(Solvent=Water) Opt=(TS,CalcFC,noeigentest)

 Title

-1 1
O -2.1773 -1.0239  1.3752
B -1.8737 -0.1395  0.2138
O -2.5478 -0.7494 -0.9436
O -2.4646  1.1592  0.5264
C -0.3250 -0.0451  0.0033
C  0.4548 -1.1807  0.0746
C  1.8235 -1.1543 -0.1029
C  2.4709  0.0362 -0.3633
F  3.8204  0.0941 -0.5431
C  1.7015  1.1788 -0.4370
F  2.3505  2.3374 -0.6930
C  0.3309  1.1405 -0.2575
H -1.3448 -1.0188  1.9418
H -2.4542 -0.2347 -1.7676
H -1.8526  1.7316  1.0522
H -0.0712 -2.1162  0.2815
H  2.4272 -2.0494 -0.0452
H -0.2686  2.0342 -0.3155
        
