%NProcShared=2
#n M06L/6-311++G** SCRF=(Solvent=Water) Opt

 Title

-1 1
C  0.3147 -1.5950 -0.0864
C  1.3414 -0.6565 -0.0614
C  1.0983  0.6992  0.0116
F  2.1108  1.6036  0.0352
C -0.2226  1.0969  0.0596
F -0.4676  2.4289  0.1314
C -1.2435  0.1666  0.0348
C -1.0043 -1.1902 -0.0381
F -2.0286 -2.0793 -0.0608
H  2.3880 -0.9619 -0.0990
H -2.2866  0.4877  0.0731
        
