%NProcShared=2
#n M06L/6-311++G** SCRF=(Solvent=Water) Opt=(TS,CalcFC,noeigentest)

 Title

-1 1
O  2.4656  0.8385 -1.0053
B  1.8867 -0.0843 -0.0310
O  2.2918 -1.4660 -0.4138
O  2.4419  0.1391  1.3110
C  0.3212  0.0188  0.0159
C -0.3944  1.0061 -0.5991
C -1.7858  1.0599 -0.5318
F -2.4709  2.0475 -1.1494
C -2.4415  0.0800  0.1804
F -3.7977  0.1647  0.2240
C -1.7565 -0.9349  0.8164
F -2.4490 -1.8757  1.5049
C -0.3738 -0.9416  0.7179
H  1.9677  0.7535 -1.8374
H  1.5356 -1.8450 -0.9457
H  2.2440  1.0241  1.6714
H  0.1492  1.7579 -1.1485
H  0.1659 -1.7426  1.2199
        
