%NProcShared=2
#n M06L/6-311++G** SCRF=(Solvent=Water) Opt

 Title

-1 1
C -0.0326 -1.6301 -0.1806
C -1.2220 -0.9455 -0.0439
C -1.2021  0.4097  0.1066
F -2.3501  1.1229  0.2443
C  0.0127  1.0680  0.1187
F  0.0389  2.4329  0.2700
C  1.2116  0.3896 -0.0177
F  2.4025  1.0761 -0.0012
C  1.1986 -0.9800 -0.1701
H -2.1884 -1.4475 -0.0512
H  2.1308 -1.4963 -0.2750
        
