%NProcShared=2
#n M06L/6-311++G** SCRF=(Solvent=Water) Opt

 Title

-1 1
C  0.1455 -1.3937  0.7467
C  1.2527 -0.5936  0.5539
F  2.4602 -1.0029  1.0039
C  1.1878  0.6283 -0.0883
C -0.0558  1.0364 -0.5449
C -1.1624  0.2352 -0.3514
F -2.4046  0.6065 -0.7887
C -1.0913 -0.9847  0.2910
F -2.2013 -1.7597  0.4703
H  2.0467  1.2544 -0.2406
H -0.1776  1.9739 -1.0518
        
