%NProcShared=2
#n M06L/6-311++G** SCRF=(Solvent=Water) Opt=(TS,CalcFC,noeigentest)

 Title

-1 1
O -2.4439 -0.4175 -1.0809
B -1.7926  0.3040  0.0073
O -2.2758 -0.2714  1.2920
O -2.0572  1.7499 -0.0357
C -0.2362  0.1043  0.0062
C  0.3806 -0.7740 -0.8470
F -0.3663 -1.5017 -1.7256
C  1.7456 -0.9592 -0.8586
C  2.5090 -0.2193  0.0352
F  3.8645 -0.3607  0.0691
C  1.9186  0.6635  0.8968
C  0.5291  0.8192  0.8736
F  0.0010  1.7054  1.7474
H -2.8562 -1.2745 -0.8002
H -1.9153 -1.2022  1.2993
H -1.7869  2.0513 -0.9400
H  2.2418 -1.6441 -1.5219
H  2.5404  1.2271  1.5831
        
