%NProcShared=2
#n M06L/6-311++G** SCRF=(Solvent=Water) Opt

 Title

-1 1
C -2.5272  0.1906 -0.0373
O -1.4430 -0.6645  0.1106
C -0.1182 -0.3427  0.0192
C  0.8129 -1.3528  0.2011
C  2.1724 -1.1201  0.1267
C  2.6141  0.1545 -0.1363
C  1.7311  1.1788 -0.3220
F  2.0873  2.4606 -0.5847
C  0.3614  0.9241 -0.2430
H -2.5625  0.7408 -0.9925
H -3.4610 -0.4448 -0.0162
H -2.6048  0.8968  0.8136
H  0.4730 -2.3656  0.4098
H  2.8455 -1.9557  0.2792
H -0.3811  1.6999 -0.3822
        
