%NProcShared=2
#n M06L/6-311++G** SCRF=(Solvent=Water) Opt=(TS,CalcFC,noeigentest)

 Title

-1 1
O -3.0094 -0.4559  0.9235
B -2.3669  0.0230 -0.3249
O -2.9039  1.3267 -0.7145
O -2.7362 -0.9523 -1.3735
C -0.8108  0.0368 -0.2026
C -0.1514 -1.1838 -0.0932
C  1.2047 -1.1629  0.0180
C  1.9516 -0.0063  0.0289
C  3.4406 -0.0139  0.1422
F  3.9998  0.9624 -0.6446
F  3.8424  0.1241  1.4701
F  3.9515 -1.2789 -0.2328
C  1.2987  1.2197 -0.0799
C -0.1038  1.2194 -0.1977
F -0.7560  2.3870 -0.2995
H -3.9777 -0.1674  0.8141
H -3.0818  1.8438  0.1053
H -2.6391 -1.8487 -1.0324
H -0.7158 -2.1391 -0.0870
H  1.7694 -2.0969  0.1123
H  1.7942  2.1632 -0.0963
        
