%NProcShared=2
#n M06L/6-311++G** SCRF=(Solvent=Water) Opt

 Title

-1 1
F  1.3897  2.4966 -0.4373
C  0.4520  1.4925 -0.3747
C  0.7838  0.1995 -0.1162
B  2.2653 -0.2156  0.1255
O  3.3122  0.8264  0.2154
O  2.7340 -1.5571 -0.1987
C -0.1831 -0.7678 -0.0632
C -1.5083 -0.4389 -0.2723
N -2.4838 -1.4723 -0.2091
O -3.8199 -1.2370 -0.4034
O -2.1425 -2.6407  0.0293
C -1.8612  0.8732 -0.5364
C -0.8748  1.8285 -0.5851
H  3.9530  0.5747  0.9423
H  2.0206 -2.0796 -0.6811
H  0.0583 -1.8251  0.1446
H -2.9048  1.0911 -0.6940
H -1.1905  2.8516 -0.7958
        
