%NProcShared=2
#n M06L/6-311++G** SCRF=(Solvent=Water) Opt

 Title

-1 1
C  2.4160  0.0507  0.3629
O  1.4161 -0.8313 -0.0446
C  0.1158 -0.4269 -0.1461
C -0.2114  0.8734  0.1593
C -1.5256  1.3079  0.0638
F -1.8056  2.5979  0.3741
C -2.4875  0.4063 -0.3428
C -2.1306 -0.8917 -0.6427
F -3.0613 -1.8134 -1.0498
C -0.8323 -1.3421 -0.5542
H  2.5694  0.8135 -0.4438
H  3.3454 -0.5401  0.5162
H  2.2164  0.5730  1.3067
H  0.5372  1.5922  0.4805
H -0.5620 -2.3694 -0.7935
        
