%NProcShared=2
#n M06L/6-311++G** SCRF=(Solvent=Water) Opt=(TS,CalcFC,noeigentest)

 Title

-1 1
O  3.0282  1.2512  0.0269
B  2.5104 -0.0970 -0.0529
O  2.9799 -0.8131 -1.2373
O  3.0013 -0.8387  1.1180
C  0.9464 -0.0468 -0.0651
C  0.2115 -1.0615  0.4879
C -1.1793 -0.9992  0.4693
C -2.0155 -2.0710  1.0704
F -2.5447 -1.5071  2.2477
F -3.0694 -2.3548  0.2122
F -1.2810 -3.1691  1.3833
C -1.7937  0.0964 -0.1102
C -1.0674  1.1201 -0.6591
C -1.7371  2.3294 -1.2672
F -2.5117  1.9470 -2.3403
F -0.7750  3.2500 -1.5716
F -2.5796  2.8410 -0.2910
C  0.3055  1.0229 -0.6301
H  3.7270  1.3433  0.7350
H  2.7296 -1.7618 -1.1708
H  2.5052 -0.5941  1.9049
H  0.6477 -1.9336  0.9698
H -2.8760  0.1790 -0.1407
H  0.8378  1.8675 -1.0889
        
