%NProcShared=2
#n M06L/6-311++G** SCRF=(Solvent=Water) Opt

 Title

-1 1
C  1.9342 -0.2286 -0.0852
C  0.4610 -0.0498 -0.0274
C -0.3263 -1.1837  0.0096
C -1.6948 -1.0131  0.0633
C -2.2689  0.2606  0.0799
C -1.4493  1.3783  0.0417
C -0.0781  1.2280 -0.0122
H  2.3105 -0.2033 -1.1299
H  2.2214 -1.1911  0.4240
H  2.3739  0.6023  0.5364
H  0.1254 -2.1824 -0.0034
H -2.3182 -1.9146  0.0926
H -1.8368  2.3867  0.0521
H  0.5461  2.1107 -0.0415
        
