%NProcShared=2
#n M06L/6-311++G** SCRF=(Solvent=Water) Opt=(TS,CalcFC,noeigentest)
 Title

-1 1
C -1.089307   -0.350945    1.24018
C -0.314862    0.327646    0.23629
B  1.829662   -0.707096   -0.22508
O  2.464284   -0.503787    0.99219
O  1.322779   -1.973570   -0.50297
H  1.051171   -2.409264    0.30823
O  2.222152    0.075134   -1.31504
H  2.250068    2.160591   -0.24601
H  1.045518    1.584497    0.48723
O  1.807481    2.237042    0.60616
C -1.161841    0.670958   -0.78368
H  1.679631   -0.123479   -2.08198
H  2.566170    0.450184    1.12882
S -2.845137    0.181130   -0.54703
C -2.427060   -0.508585    0.97554
H -3.190312   -0.984489    1.57954
H -0.660624   -0.741372    2.16355
H -0.942896    1.187730   -1.71412

