%NProcShared=2
#n M06L/6-311++G** SCRF=(Solvent=Water) Opt=(TS,CalcFC,noeigentest)
 Title

-1 1
C -0.605347    0.462986    0.29513
B  1.397771   -0.786459    0.02240
O  2.236615   -0.303020    1.01658
O  0.822408   -2.043570    0.20077
H  0.706464   -2.227641    1.13571
O  1.611763   -0.365505   -1.29437
H  1.934505    1.963760   -0.85762
H  0.804844    1.685601    0.12461
O  1.605409    2.284191   -0.01109
H  0.826728   -0.551118   -1.81863
H  2.381496    0.642060    0.85745
O -1.195415    0.154158   -0.95784
C -2.519041   -0.108391   -0.79163
C -2.858509    0.019931    0.51837
C -1.651214    0.381929    1.19454
H -1.558095    0.558333    2.25995
H -3.080322   -0.361530   -1.67991
H -3.846042   -0.125930    0.93555

