%NProcShared=2
#n M06L/6-311++G** SCRF=(Solvent=Water) Opt=(TS,CalcFC,noeigentest)
 Title

-1 1
C  1.111402   -0.129008   -0.62870
B -1.264517   -0.403725    0.00953
O -1.934977    0.498596   -0.79577
O -1.090415   -0.063131    1.35864
H -0.248296    2.219137    0.94949
H  0.381122    1.412618   -0.22337
O -0.005901    2.347774    0.02742
H -0.415363   -0.607611    1.77164
H -1.592929    1.382144   -0.58178
C  2.549175    0.157804   -0.21781
C  1.831079   -1.016451    0.36784
H  1.091647   -0.612825   -1.61446
H  2.192156   -2.008134    0.09265
H  1.551350   -0.965673    1.42513
H  2.745752    1.017286    0.42557
H  3.383255   -0.058161   -0.88669
O -1.323547   -1.722577   -0.42881
H -0.877326   -2.319526    0.17433

