%NProcShared=2
#n M06L/6-311++G** SCRF=(Solvent=Water) Opt=(TS,CalcFC,noeigentest)
 Title

-1 1
C  0.624235    0.417667   -0.04960
B -1.500161   -0.741754    0.07469
O -2.021822   -0.363995   -1.15468
O -0.978990   -2.026084    0.20883
H -0.588499   -2.312957   -0.61989
O -2.031730   -0.152142    1.22601
H -2.024003    2.081369    0.47939
H -0.723570    1.644945   -0.20053
O -1.502181    2.293869   -0.30160
H -1.572081   -0.468737    2.00724
H -2.129529    0.599670   -1.15420
C  1.485733   -0.051664   -1.08108
N  2.764451   -0.268903   -0.72432
N  2.765709    0.068134    0.58252
C  1.531224    0.476691    1.00447
H  3.626077    0.000448    1.10749
H  1.221625   -0.267118   -2.11457
H  1.410296    0.767197    2.04305

