%NProcShared=2
#n M06L/6-311++G** SCRF=(Solvent=Water) Opt=(TS,CalcFC,noeigentest)
 Title

-1 1
C  0.404161    0.371118   -0.15700
B -1.748094   -0.724912    0.21306
O -2.324541   -0.576059   -1.03912
O -1.203687   -1.959532    0.55366
H -0.894447   -2.417211   -0.23157
O -2.212685    0.073551    1.26091
H -2.222528    2.148709    0.11843
H -0.978648    1.528490   -0.52329
O -1.738781    2.176818   -0.71373
H -1.739232   -0.123083    2.07269
H -2.445657    0.370602   -1.20949
C  1.185881   -0.230539   -1.15808
N  2.508007   -0.501027   -1.12698
C  3.156484   -0.153384   -0.00776
C  2.527176    0.454924    1.07294
C  1.159162    0.710720    0.98008
H  0.707761   -0.545693   -2.09323
H  0.669575    1.189216    1.83465
H  4.224103   -0.371581    0.02293
H  3.103857    0.717035    1.95771

