%NProcShared=2
#n M06L/6-311++G** SCRF=(Solvent=Water) Opt=(TS,CalcFC,noeigentest)
 Title

-1 1
C  0.400011    0.350306   -0.16685
B -1.765101   -0.717231    0.22059
O -2.333613   -0.591736   -1.03744
O -1.218240   -1.942925    0.58662
H -0.903137   -2.414227   -0.18821
O -2.231507    0.102808    1.24994
H -2.224281    2.159884    0.07519
H -0.986030    1.513453   -0.54670
O -1.735110    2.166007   -0.75426
H -1.760231   -0.077303    2.06686
H -2.458435    0.350874   -1.22543
C  1.183309   -0.258923   -1.16721
C  2.549901   -0.474932   -1.01761
N  3.244761   -0.128028    0.07731
C  2.530080    0.458940    1.04997
C  1.163192    0.705613    0.96283
H  0.686562    1.190822    1.82005
H  0.723339   -0.592799   -2.10178
H  3.129972   -0.950893   -1.81180
H  3.093216    0.743281    1.94204

