%NProcShared=2
#n M06L/6-311++G** SCRF=(Solvent=Water) Opt=(TS,CalcFC,noeigentest)
 Title

-1 1
C -0.429382    0.243374    0.23150
B  1.698625   -0.724838   -0.10300
O  2.253871   -0.444283    1.13931
O  1.251649   -2.019357   -0.35454
H  0.922842   -2.422415    0.45228
O  2.154042    0.008515   -1.20484
H  2.133244    2.090696   -0.33795
H  0.887751    1.657729    0.39116
O  1.642551    2.300433    0.46505
H  1.710999   -0.274035   -2.00841
H  2.363247    0.513129    1.22445
C -1.226597   -0.141601    1.29279
N -2.587660   -0.330452    1.11864
C -2.905987   -0.088771   -0.12475
S -1.543448    0.376370   -1.09808
H -3.914665   -0.165365   -0.51650
H -0.832876   -0.324773    2.29162

