%NProcShared=2
#n M06L/6-311++G** SCRF=(Solvent=Water) Opt=(TS,CalcFC,noeigentest)
 Title

-1 1
C  0.500293   -0.453494    0.21197
B -1.572914    0.324654   -0.68625
O -2.063486    1.119607    0.34118
O -1.028679    0.958943   -1.80112
H -0.686271    1.823803   -1.56375
O -2.153340   -0.931805   -0.88376
H -2.183612   -1.644165    1.42308
H -0.865788   -0.879983    1.42913
O -1.638948   -1.125445    2.02453
H -1.700399   -1.404933   -1.58593
H -2.214389    0.561710    1.11925
N  1.469122    0.499677    0.37137
N  2.722359    0.165923   -0.06400
C  2.556021   -1.080061   -0.52282
C  1.226610   -1.505798   -0.37848
C  1.276746    1.819175    0.92564
H  0.217133    1.940430    1.14732
H  1.584294    2.590621    0.21295
H  1.856922    1.954517    1.84347
H  3.410027   -1.606354   -0.93537
H  0.823892   -2.467449   -0.67502

