%NProcShared=2
#n M06L/6-311++G** SCRF=(Solvent=Water) Opt=(TS,CalcFC,noeigentest)
 Title

-1 1
C  0.656302    0.338763    0.26866
B -1.484736   -0.717355    0.05257
O -1.656354   -0.358429   -1.28088
O -1.063593   -2.011238    0.34198
H -0.517717   -2.358180   -0.36732
O -2.271218   -0.076975    1.01254
H -2.095969    2.065178    0.33929
H -0.672656    1.692125   -0.01274
O -1.395743    2.334418   -0.26567
H -2.081657   -0.415223    1.89062
H -1.797800    0.598226   -1.32803
N  1.281929   -0.071906   -0.87425
N  2.632106   -0.268798   -0.81302
C  2.905657    0.046839    0.45753
C  1.745364    0.422605    1.15819
H  3.931250   -0.012709    0.80493
H  1.699210    0.723518    2.19781
H  0.812104   -0.272682   -1.74665

